Instance: E253-27k.dat
Class:  3
  252 --- number of customers (no depot)
   50 --- number of vehicles
  507 --- number of items
Capacity - height - width of vehicles
  1000     40     20
Node - x - y - demand
    0     0.0     0.0     0.0
    1     3.0     1.0   300.0
    2     3.0     3.0   300.0
    3     1.0     3.0   300.0
    4    -1.0     3.0   300.0
    5    -3.0     3.0   300.0
    6    -3.0     1.0   300.0
    7    -3.0    -1.0   300.0
    8    -3.0    -3.0   300.0
    9    -1.0    -3.0   300.0
   10     1.0    -3.0   300.0
   11     3.0    -3.0   300.0
   12     3.0    -1.0   300.0
   13     5.0     1.0   180.0
   14     5.0     3.0   180.0
   15     5.0     5.0   180.0
   16     3.0     5.0   180.0
   17     1.0     5.0   180.0
   18    -1.0     5.0   180.0
   19    -3.0     5.0   180.0
   20    -5.0     5.0   180.0
   21    -5.0     3.0   180.0
   22    -5.0     1.0   180.0
   23    -5.0    -1.0   180.0
   24    -5.0    -3.0   180.0
   25    -5.0    -5.0   180.0
   26    -3.0    -5.0   180.0
   27    -1.0    -5.0   180.0
   28     1.0    -5.0   180.0
   29     3.0    -5.0   180.0
   30     5.0    -5.0   180.0
   31     5.0    -3.0   180.0
   32     5.0    -1.0   180.0
   33     7.0     1.0   128.0
   34     7.0     3.0   128.0
   35     7.0     5.0   128.0
   36     7.0     7.0   128.0
   37     5.0     7.0   128.0
   38     3.0     7.0   128.0
   39     1.0     7.0   128.0
   40    -1.0     7.0   128.0
   41    -3.0     7.0   128.0
   42    -5.0     7.0   128.0
   43    -7.0     7.0   128.0
   44    -7.0     5.0   128.0
   45    -7.0     3.0   128.0
   46    -7.0     1.0   128.0
   47    -7.0    -1.0   128.0
   48    -7.0    -3.0   128.0
   49    -7.0    -5.0   128.0
   50    -7.0    -7.0   128.0
   51    -5.0    -7.0   128.0
   52    -3.0    -7.0   128.0
   53    -1.0    -7.0   128.0
   54     1.0    -7.0   128.0
   55     3.0    -7.0   128.0
   56     5.0    -7.0   128.0
   57     7.0    -7.0   128.0
   58     7.0    -5.0   128.0
   59     7.0    -3.0   128.0
   60     7.0    -1.0   128.0
   61     9.0     1.0   100.0
   62     9.0     3.0   100.0
   63     9.0     5.0   100.0
   64     9.0     7.0   100.0
   65     9.0     9.0   100.0
   66     7.0     9.0   100.0
   67     5.0     9.0   100.0
   68     3.0     9.0   100.0
   69     1.0     9.0   100.0
   70    -1.0     9.0   100.0
   71    -3.0     9.0   100.0
   72    -5.0     9.0   100.0
   73    -7.0     9.0   100.0
   74    -9.0     9.0   100.0
   75    -9.0     7.0   100.0
   76    -9.0     5.0   100.0
   77    -9.0     3.0   100.0
   78    -9.0     1.0   100.0
   79    -9.0    -1.0   100.0
   80    -9.0    -3.0   100.0
   81    -9.0    -5.0   100.0
   82    -9.0    -7.0   100.0
   83    -9.0    -9.0   100.0
   84    -7.0    -9.0   100.0
   85    -5.0    -9.0   100.0
   86    -3.0    -9.0   100.0
   87    -1.0    -9.0   100.0
   88     1.0    -9.0   100.0
   89     3.0    -9.0   100.0
   90     5.0    -9.0   100.0
   91     7.0    -9.0   100.0
   92     9.0    -9.0   100.0
   93     9.0    -7.0   100.0
   94     9.0    -5.0   100.0
   95     9.0    -3.0   100.0
   96     9.0    -1.0   100.0
   97    11.0     1.0    81.0
   98    11.0     3.0    81.0
   99    11.0     5.0    81.0
  100    11.0     7.0    81.0
  101    11.0     9.0    81.0
  102    11.0    11.0    81.0
  103     9.0    11.0    81.0
  104     7.0    11.0    81.0
  105     5.0    11.0    81.0
  106     3.0    11.0    81.0
  107     1.0    11.0    81.0
  108    -1.0    11.0    81.0
  109    -3.0    11.0    81.0
  110    -5.0    11.0    81.0
  111    -7.0    11.0    81.0
  112    -9.0    11.0    81.0
  113   -11.0    11.0    81.0
  114   -11.0     9.0    81.0
  115   -11.0     7.0    81.0
  116   -11.0     5.0    81.0
  117   -11.0     3.0    81.0
  118   -11.0     1.0    81.0
  119   -11.0    -1.0    81.0
  120   -11.0    -3.0    81.0
  121   -11.0    -5.0    81.0
  122   -11.0    -7.0    81.0
  123   -11.0    -9.0    81.0
  124   -11.0   -11.0    81.0
  125    -9.0   -11.0    81.0
  126    -7.0   -11.0    81.0
  127    -5.0   -11.0    81.0
  128    -3.0   -11.0    81.0
  129    -1.0   -11.0    81.0
  130     1.0   -11.0    81.0
  131     3.0   -11.0    81.0
  132     5.0   -11.0    81.0
  133     7.0   -11.0    81.0
  134     9.0   -11.0    81.0
  135    11.0   -11.0    81.0
  136    11.0    -9.0    81.0
  137    11.0    -7.0    81.0
  138    11.0    -5.0    81.0
  139    11.0    -3.0    81.0
  140    11.0    -1.0    81.0
  141    13.0     1.0    69.0
  142    13.0     3.0    69.0
  143    13.0     5.0    69.0
  144    13.0     7.0    69.0
  145    13.0     9.0    69.0
  146    13.0    11.0    69.0
  147    13.0    13.0    69.0
  148    11.0    13.0    69.0
  149     9.0    13.0    69.0
  150     7.0    13.0    69.0
  151     5.0    13.0    69.0
  152     3.0    13.0    69.0
  153     1.0    13.0    69.0
  154    -1.0    13.0    69.0
  155    -3.0    13.0    69.0
  156    -5.0    13.0    69.0
  157    -7.0    13.0    69.0
  158    -9.0    13.0    69.0
  159   -11.0    13.0    69.0
  160   -13.0    13.0    69.0
  161   -13.0    11.0    69.0
  162   -13.0     9.0    69.0
  163   -13.0     7.0    69.0
  164   -13.0     5.0    69.0
  165   -13.0     3.0    69.0
  166   -13.0     1.0    69.0
  167   -13.0    -1.0    69.0
  168   -13.0    -3.0    69.0
  169   -13.0    -5.0    69.0
  170   -13.0    -7.0    69.0
  171   -13.0    -9.0    69.0
  172   -13.0   -11.0    69.0
  173   -13.0   -13.0    69.0
  174   -11.0   -13.0    69.0
  175    -9.0   -13.0    69.0
  176    -7.0   -13.0    69.0
  177    -5.0   -13.0    69.0
  178    -3.0   -13.0    69.0
  179    -1.0   -13.0    69.0
  180     1.0   -13.0    69.0
  181     3.0   -13.0    69.0
  182     5.0   -13.0    69.0
  183     7.0   -13.0    69.0
  184     9.0   -13.0    69.0
  185    11.0   -13.0    69.0
  186    13.0   -13.0    69.0
  187    13.0   -11.0    69.0
  188    13.0    -9.0    69.0
  189    13.0    -7.0    69.0
  190    13.0    -5.0    69.0
  191    13.0    -3.0    69.0
  192    13.0    -1.0    69.0
  193    15.0     1.0    60.0
  194    15.0     3.0    60.0
  195    15.0     5.0    60.0
  196    15.0     7.0    60.0
  197    15.0     9.0    60.0
  198    15.0    11.0    60.0
  199    15.0    13.0    60.0
  200    15.0    15.0    60.0
  201    13.0    15.0    60.0
  202    11.0    15.0    60.0
  203     9.0    15.0    60.0
  204     7.0    15.0    60.0
  205     5.0    15.0    60.0
  206     3.0    15.0    60.0
  207     1.0    15.0    60.0
  208    -1.0    15.0    60.0
  209    -3.0    15.0    60.0
  210    -5.0    15.0    60.0
  211    -7.0    15.0    60.0
  212    -9.0    15.0    60.0
  213   -11.0    15.0    60.0
  214   -13.0    15.0    60.0
  215   -15.0    15.0    60.0
  216   -15.0    13.0    60.0
  217   -15.0    11.0    60.0
  218   -15.0     9.0    60.0
  219   -15.0     7.0    60.0
  220   -15.0     5.0    60.0
  221   -15.0     3.0    60.0
  222   -15.0     1.0    60.0
  223   -15.0    -1.0    60.0
  224   -15.0    -3.0    60.0
  225   -15.0    -5.0    60.0
  226   -15.0    -7.0    60.0
  227   -15.0    -9.0    60.0
  228   -15.0   -11.0    60.0
  229   -15.0   -13.0    60.0
  230   -15.0   -15.0    60.0
  231   -13.0   -15.0    60.0
  232   -11.0   -15.0    60.0
  233    -9.0   -15.0    60.0
  234    -7.0   -15.0    60.0
  235    -5.0   -15.0    60.0
  236    -3.0   -15.0    60.0
  237    -1.0   -15.0    60.0
  238     1.0   -15.0    60.0
  239     3.0   -15.0    60.0
  240     5.0   -15.0    60.0
  241     7.0   -15.0    60.0
  242     9.0   -15.0    60.0
  243    11.0   -15.0    60.0
  244    13.0   -15.0    60.0
  245    15.0   -15.0    60.0
  246    15.0   -13.0    60.0
  247    15.0   -11.0    60.0
  248    15.0    -9.0    60.0
  249    15.0    -7.0    60.0
  250    15.0    -5.0    60.0
  251    15.0    -3.0    60.0
  252    15.0    -1.0    60.0
Node - number of items - h - w for each item
    0   0
    1   3    7   11   10    5   30    3
    2   3   26    3   16    3   27    2
    3   2    4   10    6    7
    4   1   16    6
    5   2    4   12   30    2
    6   3   11    7   15    3   13    3
    7   2    8    5   14    2
    8   2    7    9   18    2
    9   2    6   10   12    3
   10   1   21    2
   11   3    6   12    6   12   10    6
   12   1   12    8
   13   2   14    3   12    3
   14   3   18    4   30    3   18    3
   15   1    7   14
   16   2    8   12   13    2
   17   1   18    3
   18   3    6   16    5    7   30    3
   19   2   12    8   30    3
   20   1    9    7
   21   1    7    9
   22   3    7   11   12    7   27    3
   23   1   13    2
   24   1    9    8
   25   2    7   13    6   13
   26   2    6    7   15    3
   27   3    7   11   14    5   28    3
   28   2    5   16   15    3
   29   3    7   16   24    4   22    3
   30   3    5   15    5    7   15    3
   31   2    5   14   11    6
   32   2    6    9   19    2
   33   3    6   11    4   11    6    6
   34   1   24    3
   35   2    5   16   15    5
   36   3    5   16    5    7   14    2
   37   2    5    8   15    6
   38   2   18    4   19    2
   39   1   25    4
   40   2    6    9   17    3
   41   1   19    3
   42   2   13    8   12    7
   43   3    8   14    5    9   11    7
   44   3    5   13    5    6   13    3
   45   2    5   11    7    8
   46   2    6   16    7    8
   47   3   12    6    9    5   25    2
   48   2   11    7   25    2
   49   3   14    6   18    4   23    3
   50   1   25    4
   51   3    5   14    6   10   23    2
   52   1   30    4
   53   1   12    6
   54   1    9    5
   55   2   10    7    8    7
   56   1   17    3
   57   3    7   13    7   12    8    7
   58   2   13    7   21    3
   59   3    5   14    6   12    8    8
   60   2    8   14   12    4
   61   2    4   12   16    6
   62   1    8   12
   63   1   12    7
   64   3    8   10   16    4   23    3
   65   3    7   10    7    7   19    3
   66   2    8    7   25    4
   67   2    7   14   13    4
   68   3    4   11   10    8    8    6
   69   1    9    7
   70   3    5   14    9    5   17    4
   71   2    5   13   22    2
   72   2    6   11   21    3
   73   1   13    8
   74   1   17    3
   75   2   27    3   25    2
   76   3   12    6    5    6   18    4
   77   3    7   13    5    8   12    6
   78   1   20    3
   79   3    9    7   26    2   19    2
   80   1   11    5
   81   2    7   14    8    5
   82   1   21    2
   83   2    7   16   13    2
   84   1   14    6
   85   2    8    6   20    4
   86   1   11    7
   87   2   19    4   13    4
   88   3    8   10   15    7   13    3
   89   1   16    6
   90   1   12    7
   91   2   14    6   22    3
   92   3    6   16   10    7   24    2
   93   1    4   16
   94   2    6   12   13    4
   95   1   26    4
   96   3   12    5   30    4   21    3
   97   2   14    4   28    2
   98   2   13    7   12    3
   99   1   12    8
  100   3    6   11   14    7   22    3
  101   3    5    9    4    9   13    5
  102   3    5   12    4    8   19    4
  103   2   15    8   12    3
  104   3    7   13    5    8   18    3
  105   2   11    6   12    3
  106   2    8   13   10    5
  107   2    5   14    5    9
  108   3    6   16    8   14    8   10
  109   3    6   16   15    6   14    5
  110   1    5   12
  111   3    5   14   15    7   27    4
  112   1   23    3
  113   2   24    3   14    3
  114   3    5   11    7   10   22    3
  115   1    4   10
  116   2    5   15   14    3
  117   1   24    3
  118   3    7   11    5    9   10    5
  119   3    8   12   15    8   26    2
  120   1    8   14
  121   3    4    9   20    4   24    3
  122   3    8   14    6    7   25    3
  123   2   29    3   30    2
  124   2    8   11    7    7
  125   1   31    4
  126   2    9    6   19    2
  127   1    4    9
  128   2   14    5   16    3
  129   2    4   15   16    5
  130   1   13    7
  131   2    5   16   11    8
  132   1    8   10
  133   1    5   14
  134   3    6   16   20    3   15    2
  135   1    5    7
  136   2   11    8   10    8
  137   3    6   16   15    8    9    5
  138   3    8   15    7    9   15    5
  139   3    4   12    7   10   11    5
  140   3    4   15   28    4   17    4
  141   3   23    4   22    3   21    3
  142   2   12    8   15    6
  143   1   10    5
  144   3    6   15    8   11   12    3
  145   1   21    2
  146   2    7   11    7    9
  147   1    6   10
  148   2    6   13    8    8
  149   2    6   12   12    5
  150   2   14    4   12    2
  151   3    6    8    8    7   27    2
  152   3    5    9   13    7   12    7
  153   1   12    8
  154   1    8    6
  155   2    8    8   32    3
  156   2    5   12   12    5
  157   2   16    3   16    2
  158   3   11    7   11    7    9    4
  159   2    4    8   14    4
  160   3    6   13    5    6   27    4
  161   2   13    4   13    3
  162   3   10    7   15    4   27    3
  163   3    6   11    7    8   31    3
  164   3    5   13   12    7   14    5
  165   1   14    3
  166   2    4   11   27    3
  167   3   11    8   11    6   14    2
  168   2   15    8    5    6
  169   3    6    9   12    6   19    4
  170   3    4    6   32    3   27    3
  171   2    9    7   28    3
  172   3    5    6   31    3   30    3
  173   2    7   10   20    4
  174   1   13    7
  175   2    5   14    6    9
  176   1   28    3
  177   3    9    8    9    7   26    4
  178   2    8   13   31    2
  179   1   23    2
  180   2    9    6   14    5
  181   3    7    9   14    5   14    3
  182   1   22    2
  183   3    4    7   14    6   31    2
  184   2    5   16   26    3
  185   2    5   14   14    7
  186   3    5   12   13    7   13    3
  187   1   12    7
  188   2    6   14   20    3
  189   2   10    4   16    3
  190   3    5    9   14    7   21    2
  191   3    6   11    6    7   16    4
  192   2    6    8   15    3
  193   1   30    3
  194   1   11    8
  195   2    7    9   16    2
  196   1   28    2
  197   3    8    8   14    4   17    3
  198   3    5    8   21    4   13    4
  199   1    5    9
  200   1   17    3
  201   3    8    5   24    4   14    4
  202   2    6   14   10    8
  203   1    6    6
  204   3    8    6   15    4   22    2
  205   2    6   12    7   10
  206   2    8   14    6    8
  207   1   15    6
  208   2    4   16    8    8
  209   3    6    9   16    7    7    7
  210   3   11    7    7    6   27    4
  211   2    5   16   15    6
  212   1   16    7
  213   1    6   14
  214   3    5   13   14    6   19    2
  215   1    8   10
  216   1   24    4
  217   2    5   11    8    4
  218   2    4    9   21    2
  219   2   12    5   13    2
  220   1   20    3
  221   2   11    5   26    3
  222   1    7    9
  223   1   25    3
  224   2    5   13   25    2
  225   3    5   16   13    8   25    3
  226   3    5   12   25    3   13    3
  227   3    4   10   29    3   14    3
  228   2    6   12    8    4
  229   3    4   15    7   10   18    4
  230   1   28    3
  231   3   13    6   24    3   20    3
  232   1   15    4
  233   3    7   12    7   10   12    5
  234   2    7   13   15    5
  235   1   15    3
  236   3    7   11   10    5   14    4
  237   1    6    9
  238   3    6   15    7   12   14    3
  239   2   18    3   21    2
  240   2   11    6   26    4
  241   1    7   12
  242   2    6   16   11    7
  243   1    7   11
  244   2    6   13    6   12
  245   1   13    3
  246   2   11    6   17    2
  247   1    6   16
  248   2    6   11   29    2
  249   1    9    5
  250   2    6   14    5   11
  251   2    9    8   32    3
  252   2    5   13   11    5
